3753
3824
3720
3777
3836
3699
3782
3784
3790
3728
3770
3807
3791
3830
3734
3716
3793
3812
3792
3787
3799
3794
3749
3796
3733
3796
3801
3777
3742
3758
3800
3850
3810
3816
3809
3739
3717
3817
3744
3794
3787
3813
3814
3826
3672
3849
3826
3809
3772
3790
3753
3728
3793
3768
3784
3767
3829
3716
3783
3795
3848
3745
3798
3779
3803
3792
3812
3783
3811
3776
3746
3753
3705
3790
3804
3843
3742
3778
3799
3774
3761
3712
3805
3751
3792
3824
3799
3780
3828
3823
3808
3803
3763
3775
3795
3747
3757
3799
3786
3784
